5

0   17   14   6   16
17   0   20   22   7
14   20   0   13   23
6   22   13   0   19
16   7   23   19   0

0   28   16   37   43
28   0   24   65   71
16   24   0   41   47
37   65   41   0   6
43   71   47   6   0